# Objective value = 2.5101299999999983e+03
I_0_0 1318
I_0_1 1863
I_0_2 1.6039999999999998e+03
I_0_3 1.7200000000000009e+03
I_1_0 77
I_1_1 0
I_1_2 77
I_1_3 1.1220191442617988e-14
I_2_0 52
I_2_1 26
I_2_2 52
I_2_3 26
I_3_0 150
I_3_1 75
I_3_2 1.9895196601282805e-13
I_3_3 1.4999999999999966e+02
I_4_0 75
I_4_1 0
I_4_2 75
I_4_3 0
I_5_0 72
I_5_1 0
I_5_2 72
I_5_3 0
I_6_0 100
I_6_1 50
I_6_2 2.5579538487363607e-13
I_6_3 9.9999999999999744e+01
I_7_0 39
I_7_1 2.1649348980190553e-15
I_7_2 39
I_7_3 2.1649348980190553e-15
I_8_0 118
I_8_1 59
I_8_2 1.1800000000000001e+02
I_8_3 5.8999999999999993e+01
I_9_0 54
I_9_1 0
I_9_2 54
I_9_3 0
I_10_0 36
I_10_1 18
I_10_2 5.6843418860808015e-14
I_10_3 3.5999999999999929e+01
q_1_0 0
q_1_1 154
q_1_2 1.1220191442617988e-14
q_2_0 0
q_2_1 52
q_2_2 3.5527136788005009e-15
q_3_0 0
q_3_1 2.4868995751603507e-13
q_3_2 2.2499999999999946e+02
q_4_0 0
q_4_1 150
q_4_2 0
q_5_0 0
q_5_1 144
q_5_2 0
q_6_0 0
q_6_1 2.1493917756743031e-13
q_6_2 1.4999999999999949e+02
q_7_0 2.1649348980190553e-15
q_7_1 78
q_7_2 2.1649348980190553e-15
q_8_0 -4.0939474033052647e-16
q_8_1 1.1800000000000007e+02
q_8_2 -7.9936057773011271e-15
q_9_0 0
q_9_1 108
q_9_2 0
q_10_0 0
q_10_1 6.3060667798708891e-14
q_10_2 5.3999999999999872e+01
y_0_0 0
y_0_1 1
y_0_2 0.999999999999997
y_1_0 0
y_1_1 1
y_1_2 1.4571677198205180e-16
y_2_0 0
y_2_1 1
y_2_2 -6.9388939039072284e-18
y_3_0 0
y_3_1 1.8873791418627661e-15
y_3_2 9.9999999999999845e-01
y_4_0 0
y_4_1 1
y_4_2 0
y_5_0 0
y_5_1 1
y_5_2 0
y_6_0 0
y_6_1 2.4771851236948805e-15
y_6_2 9.9999999999999722e-01
y_7_0 5.5511151231257827e-17
y_7_1 1
y_7_2 5.5511151231257827e-17
y_8_0 -6.9388939039072284e-18
y_8_1 1
y_8_2 -6.5919492087118670e-17
y_9_0 0
y_9_1 1
y_9_2 0
y_10_0 0
y_10_1 1.8318679906315083e-15
y_10_2 9.9999999999999811e-01
x_0_1_0 0
x_0_1_1 0
x_0_1_2 0
x_0_2_0 0
x_0_2_1 0
x_0_2_2 0
x_0_3_0 0
x_0_3_1 1.8873791418627661e-15
x_0_3_2 9.9999999999999534e-01
x_0_4_0 0
x_0_4_1 0
x_0_4_2 0
x_0_5_0 -6.9388939039072284e-18
x_0_5_1 9.9999999999999933e-01
x_0_5_2 0
x_0_6_0 0
x_0_6_1 0
x_0_6_2 0
x_0_7_0 0
x_0_7_1 0
x_0_7_2 0
x_0_8_0 0
x_0_8_1 9.9999999999999589e-01
x_0_8_2 0
x_0_9_0 0
x_0_9_1 0
x_0_9_2 0
x_0_10_0 6.9388939039072284e-18
x_0_10_1 3.5527136788005009e-15
x_0_10_2 9.9999999999999856e-01
x_1_2_0 0
x_1_2_1 0
x_1_2_2 0
x_1_3_0 0
x_1_3_1 0
x_1_3_2 0
x_1_4_0 0
x_1_4_1 9.9999999999999711e-01
x_1_4_2 4.0592529337857286e-16
x_1_5_0 0
x_1_5_1 -5.5511151231257827e-17
x_1_5_2 0
x_1_6_0 0
x_1_6_1 0
x_1_6_2 0
x_1_7_0 0
x_1_7_1 0
x_1_7_2 0
x_1_8_0 0
x_1_8_1 2.7616797737550769e-15
x_1_8_2 -1.3877787807814457e-16
x_1_9_0 6.9388939039072284e-18
x_1_9_1 1
x_1_9_2 0
x_1_10_0 0
x_1_10_1 0
x_1_10_2 0
x_2_3_0 0
x_2_3_1 0
x_2_3_2 0
x_2_4_0 0
x_2_4_1 -4.85722573273506e-17
x_2_4_2 0
x_2_5_0 0
x_2_5_1 0
x_2_5_2 0
x_2_6_0 0
x_2_6_1 2.4771851236948805e-15
x_2_6_2 -1.3877787807814457e-17
x_2_7_0 2.0816681711721685e-16
x_2_7_1 1
x_2_7_2 0
x_2_8_0 0
x_2_8_1 0
x_2_8_2 0
x_2_9_0 -3.4694469519536142e-17
x_2_9_1 9.9999999999999745e-01
x_2_9_2 0
x_2_10_0 0
x_2_10_1 0
x_2_10_2 0
x_3_4_0 0
x_3_4_1 0
x_3_4_2 0
x_3_5_0 0
x_3_5_1 1.7832957333041577e-15
x_3_5_2 0
x_3_6_0 0
x_3_6_1 0
x_3_6_2 9.9999999999999778e-01
x_3_7_0 0
x_3_7_1 0
x_3_7_2 0
x_3_8_0 0
x_3_8_1 0
x_3_8_2 0
x_3_9_0 0
x_3_9_1 0
x_3_9_2 0
x_3_10_0 0
x_3_10_1 0
x_3_10_2 -3.0531133177191805e-16
x_4_5_0 0
x_4_5_1 3.1363800445660672e-15
x_4_5_2 0
x_4_6_0 0
x_4_6_1 0
x_4_6_2 0
x_4_7_0 0
x_4_7_1 0
x_4_7_2 0
x_4_8_0 0
x_4_8_1 1
x_4_8_2 0
x_4_9_0 0
x_4_9_1 0
x_4_9_2 -4.0592529337857286e-16
x_4_10_0 0
x_4_10_1 0
x_4_10_2 0
x_5_6_0 0
x_5_6_1 0
x_5_6_2 -4.9960036108132044e-16
x_5_7_0 0
x_5_7_1 9.9999999999999456e-01
x_5_7_2 0
x_5_8_0 1.3877787807814457e-17
x_5_8_1 2.0816681711721685e-15
x_5_8_2 0
x_5_9_0 0
x_5_9_1 0
x_5_9_2 0
x_5_10_0 -6.9388939039072284e-18
x_5_10_1 0
x_5_10_2 0
x_6_7_0 0
x_6_7_1 2.4702462297909733e-15
x_6_7_2 5.5511151231257827e-17
x_6_8_0 0
x_6_8_1 0
x_6_8_2 0
x_6_9_0 0
x_6_9_1 0
x_6_9_2 0
x_6_10_0 0
x_6_10_1 0
x_6_10_2 9.9999999999999689e-01
x_7_8_0 0
x_7_8_1 0
x_7_8_2 0
x_7_9_0 -9.71445146547012e-17
x_7_9_1 2.4424906541753444e-15
x_7_9_2 4.1633363423443370e-17
x_7_10_0 0
x_7_10_1 0
x_7_10_2 0
x_8_9_0 0
x_8_9_1 0
x_8_9_2 0
x_8_10_0 0
x_8_10_1 0
x_8_10_2 0
x_9_10_0 0
x_9_10_1 0
x_9_10_2 0
